
  21    0


   0  11 2 4 5 7 8 9 16 17 18 19 20 
   7   4 15 14 6 3 
   4   2 12 10 
   1   2 13 10 
   1   2 11 10 
   3   1 11 
   5   1 11 
   7   1 10 
   7   1 10 
   9   1 21
   8   1 21
   8   1 21
   3   1 21
   2   1 21
   5   1 21
   5   1 21
   2   1 21
   9   1 21
   5   1 21
   3   1 21
   0   0 
